\ENCODING=ISO-8859-1
\Problem name: ilog.cplex

Minimize
 obj1: 108995 x1 + 105029 x2 + 106833 x3 + 97423 x4 + 100474 x5 + 94171 x6
       + 91352 x7 + 103398 x8 + 94627 x9 + 109560 x10 + 99945 x11 + 102852 x12
       + 103375 x13 + 100326 x14 + 105722 x15 + 95215 x16 + 107424 x17
       + 101070 x18 + 92926 x19 + 90792 x20 + 105959 x21 + 102566 x22
       + 95054 x23 + 108114 x24 + 109545 x25 + 109410 x26 + 99456 x27
       + 91524 x28 + 107376 x29 + 108212 x30 + 91339 x31 + 107300 x32
       + 90028 x33 + 91949 x34 + 95468 x35 + 106448 x36 + 94510 x37
       + 108813 x38 + 104792 x39 + 102798 x40 + 99701 x41 + 107144 x42
       + 101807 x43 + 106158 x44 + 97129 x45 + 92004 x46 + 100690 x47
       + 91998 x48 + 94576 x49 + 93465 x50 + 106041 x51 + 101529 x52
       + 98146 x53 + 91884 x54 + 97571 x55 + 108995 x56 + 102197 x57
       + 91233 x58 + 109104 x59 + 106648 x60 + 102073 x61 + 90401 x62
       + 109963 x63 + 107501 x64 + 97431 x65 + 100581 x66 + 107795 x67
       + 104169 x68 + 105652 x69 + 102917 x70 + 108780 x71 + 106756 x72
       + 94730 x73 + 91280 x74 + 93321 x75 + 99320 x76 + 98022 x77 + 91296 x78
       + 102493 x79 + 106814 x80 + 105783 x81 + 106390 x82 + 96063 x83
       + 93552 x84 + 101208 x85 + 97588 x86 + 90902 x87 + 105101 x88
       + 102814 x89 + 103544 x90 + 91199 x91 + 106866 x92 + 104271 x93
       + 107241 x94 + 93917 x95 + 107952 x96 + 102628 x97 + 91501 x98
       + 105614 x99 + 99852 x100 + 96393 x101 + 96671 x102 + 100063 x103
       + 106090 x104 + 96014 x105 + 100780 x106 + 100009 x107 + 91155 x108
       + 101067 x109 + 104950 x110 + 100966 x111 + 94885 x112 + 100803 x113
       + 105019 x114 + 90143 x115 + 101942 x116 + 107717 x117 + 104074 x118
       + 109363 x119 + 105070 x120 + 95555 x121 + 102079 x122 + 107256 x123
       + 103260 x124 + 94640 x125 + 90531 x126 + 92377 x127 + 102933 x128
       + 105576 x129 + 101674 x130 + 99701 x131 + 103776 x132 + 97625 x133
       + 106354 x134 + 94795 x135 + 107960 x136 + 90481 x137 + 107697 x138
       + 101317 x139 + 99275 x140 + 90440 x141 + 98207 x142 + 109809 x143
       + 101121 x144 + 98112 x145 + 109647 x146 + 95818 x147 + 93350 x148
       + 101517 x149 + 100376 x150 + 109092 x151 + 107149 x152 + 108153 x153
       + 104038 x154 + 105655 x155 + 99257 x156 + 94926 x157 + 93390 x158
       + 100164 x159 + 109420 x160 + 105813 x161 + 93508 x162 + 97260 x163
       + 108347 x164 + 103683 x165 + 109762 x166 + 97508 x167 + 107308 x168
       + 104938 x169 + 97655 x170 + 106019 x171 + 105104 x172 + 93449 x173
       + 94004 x174 + 100032 x175 + 93292 x176 + 103725 x177 + 91934 x178
       + 95458 x179 + 106348 x180 + 109902 x181 + 101269 x182 + 95942 x183
       + 90078 x184 + 107189 x185 + 107449 x186 + 99731 x187 + 108212 x188
       + 91577 x189 + 108131 x190 + 97413 x191 + 106295 x192 + 101306 x193
       + 94079 x194 + 101688 x195 + 93914 x196 + 101510 x197 + 109136 x198
       + 103255 x199 + 90944 x200 + 108137 x201 + 107904 x202 + 103617 x203
       + 105504 x204 + 98572 x205 + 101594 x206 + 93964 x207 + 101792 x208
       + 104548 x209 + 96243 x210 + 107614 x211 + 94874 x212 + 94376 x213
       + 97165 x214 + 102726 x215 + 109519 x216 + 103564 x217 + 108863 x218
       + 91876 x219 + 95820 x220 + 105569 x221 + 100559 x222 + 105555 x223
       + 105620 x224 + 107742 x225 + 94111 x226 + 97788 x227 + 100628 x228
       + 91427 x229 + 103268 x230 + 93781 x231 + 105674 x232 + 109759 x233
       + 91056 x234 + 101897 x235 + 98641 x236 + 91837 x237 + 95552 x238
       + 105222 x239 + 102444 x240 + 93754 x241 + 105730 x242 + 104869 x243
       + 95367 x244 + 108253 x245 + 108325 x246 + 105579 x247 + 108461 x248
       + 102784 x249 + 95064 x250 + 93947 x251 + 94897 x252 + 91090 x253
       + 93761 x254 + 97547 x255 + 107695 x256 + 101679 x257 + 104411 x258
       + 96720 x259 + 104876 x260 + 93908 x261 + 97769 x262 + 107658 x263
       + 108147 x264 + 91509 x265 + 91251 x266 + 95312 x267 + 105934 x268
       + 91546 x269 + 95583 x270 + 90626 x271 + 91089 x272 + 101198 x273
       + 107026 x274 + 106283 x275 + 102776 x276 + 104761 x277 + 102052 x278
       + 90498 x279 + 91959 x280 + 108949 x281 + 94057 x282 + 109335 x283
       + 90341 x284 + 95784 x285 + 94942 x286 + 104615 x287 + 93788 x288
       + 109315 x289 + 108380 x290 + 96691 x291 + 92942 x292 + 94891 x293
       + 106084 x294 + 109198 x295 + 96138 x296 + 97870 x297 + 103599 x298
       + 106329 x299 + 92713 x300 + 98388 x301 + 90425 x302 + 95810 x303
       + 107300 x304 + 108692 x305 + 95658 x306 + 108176 x307 + 104755 x308
       + 101196 x309 + 98759 x310 + 94706 x311 + 90312 x312 + 92870 x313
       + 95172 x314 + 109795 x315 + 104989 x316 + 94963 x317 + 109804 x318
       + 90906 x319 + 101799 x320 + 94529 x321 + 109840 x322 + 99447 x323
       + 98140 x324 + 109132 x325 + 100238 x326 + 94621 x327 + 104666 x328
       + 109200 x329 + 105221 x330 + 91459 x331 + 95448 x332 + 101142 x333
       + 103449 x334 + 105699 x335 + 93918 x336 + 93577 x337 + 104615 x338
       + 100180 x339 + 104454 x340 + 108872 x341 + 90810 x342 + 100163 x343
       + 100379 x344 + 92698 x345 + 97296 x346 + 98217 x347 + 105779 x348
       + 95398 x349 + 94230 x350 + 103293 x351 + 100699 x352 + 90734 x353
       + 93363 x354 + 103135 x355 + 97162 x356 + 99898 x357 + 101928 x358
       + 104340 x359 + 96856 x360 + 90475 x361 + 93525 x362 + 104379 x363
       + 92956 x364 + 93353 x365 + 101511 x366 + 96290 x367 + 93810 x368
       + 92405 x369 + 104083 x370 + 92398 x371 + 102409 x372 + 105316 x373
       + 107408 x374 + 97947 x375 + 104948 x376 + 104517 x377 + 98329 x378
       + 94301 x379 + 109661 x380 + 95694 x381 + 96593 x382 + 109895 x383
       + 97663 x384 + 103392 x385 + 95734 x386 + 104106 x387 + 107399 x388
       + 104764 x389 + 99894 x390 + 92681 x391 + 101723 x392 + 106552 x393
       + 92522 x394 + 97719 x395 + 108079 x396 + 100149 x397 + 92086 x398
       + 95248 x399 + 104279 x400 + 94866 x401 + 99833 x402 + 99072 x403
       + 105080 x404 + 100541 x405 + 105104 x406 + 100834 x407 + 108033 x408
       + 107150 x409 + 104814 x410 + 103144 x411 + 101028 x412 + 91348 x413
       + 95479 x414 + 95115 x415 + 98495 x416 + 107652 x417 + 108486 x418
       + 107840 x419 + 98388 x420 + 97918 x421 + 92140 x422 + 99208 x423
       + 91670 x424 + 92377 x425 + 107294 x426 + 97301 x427 + 109891 x428
       + 108476 x429 + 103280 x430 + 105565 x431 + 99183 x432 + 91303 x433
       + 103477 x434 + 92548 x435 + 102769 x436 + 92271 x437 + 91023 x438
       + 97505 x439 + 101107 x440 + 94393 x441 + 108104 x442 + 98490 x443
       + 102378 x444 + 100747 x445 + 98689 x446 + 109567 x447 + 101152 x448
       + 102180 x449 + 96045 x450 + 107266 x451 + 99146 x452 + 91088 x453
       + 100466 x454 + 105006 x455 + 106429 x456 + 99555 x457 + 102336 x458
       + 103455 x459 + 101381 x460 + 92173 x461 + 101009 x462 + 104667 x463
       + 103436 x464 + 96530 x465 + 90911 x466 + 108310 x467 + 103834 x468
       + 107680 x469 + 92869 x470 + 109418 x471 + 106562 x472 + 96813 x473
       + 100889 x474 + 108850 x475 + 94137 x476 + 108898 x477 + 92419 x478
       + 109977 x479 + 91067 x480 + 91563 x481 + 94840 x482 + 100016 x483
       + 102965 x484 + 107492 x485 + 102298 x486 + 108488 x487 + 98045 x488
       + 97569 x489 + 102231 x490 + 95081 x491 + 97006 x492 + 99441 x493
       + 106365 x494 + 101364 x495 + 100911 x496 + 102564 x497 + 92950 x498
       + 101800 x499 + 97702 x500 + 91705 x501 + 94492 x502 + 102736 x503
       + 91301 x504 + 98370 x505 + 91493 x506 + 106162 x507 + 105324 x508
       + 100668 x509 + 96062 x510 + 99910 x511 + 94307 x512 + 90815 x513
       + 90059 x514 + 90025 x515 + 104027 x516 + 103953 x517 + 103848 x518
       + 90753 x519 + 101655 x520 + 91917 x521 + 103808 x522 + 92920 x523
       + 106433 x524 + 91261 x525 + 99399 x526 + 102445 x527 + 91966 x528
       + 96117 x529 + 103899 x530 + 97291 x531 + 102406 x532 + 103353 x533
       + 106860 x534 + 93390 x535 + 106497 x536 + 90006 x537 + 100855 x538
       + 97881 x539 + 105838 x540 + 96690 x541 + 90001 x542 + 95863 x543
       + 100957 x544 + 98293 x545 + 91806 x546 + 94591 x547 + 107024 x548
       + 104858 x549 + 107426 x550 + 102566 x551 + 104088 x552 + 93316 x553
       + 103967 x554 + 95042 x555 + 103223 x556 + 104331 x557 + 105454 x558
       + 106933 x559 + 92173 x560 + 90254 x561 + 108751 x562 + 105652 x563
       + 92926 x564 + 90399 x565 + 97350 x566 + 97785 x567 + 90423 x568
       + 91398 x569 + 108822 x570 + 101272 x571 + 94339 x572 + 98375 x573
       + 100486 x574 + 105560 x575 + 100002 x576 + 101298 x577 + 102245 x578
       + 93634 x579 + 104210 x580 + 90103 x581 + 105563 x582 + 91876 x583
       + 107022 x584 + 92049 x585 + 93186 x586 + 106354 x587 + 91586 x588
       + 95244 x589 + 105512 x590 + 97501 x591 + 100614 x592 + 103408 x593
       + 106369 x594 + 98995 x595 + 100360 x596 + 98669 x597 + 93510 x598
       + 101278 x599 + 925 x600 + 372168 x601 + 416535 x602 + 401590 x603
       + 384461 x604 + 395924 x605 + 361277 x606 + 374389 x607 + 384237 x608
       + 415352 x609 + 396578 x610 + 370530 x611 + 434155 x612 + 392144 x613
       + 388456 x614 + 400888 x615 + 401056 x616 + 419446 x617 + 364239 x618
       + 412011 x619 + 381035 x620 + 383410 x621 + 423661 x622 + 384809 x623
       + 424038 x624 + 372751 x625 + 369691 x626 + 424638 x627 + 432016 x628
       + 360436 x629 + 385199 x630 + 435070 x631 + 399595 x632 + 369851 x633
       + 384137 x634 + 369586 x635 + 392526 x636 + 393450 x637 + 395989 x638
       + 384891 x639 + 393044 x640 + 435165 x641 + 379836 x642 + 436514 x643
       + 382552 x644 + 398475 x645 + 409431 x646 + 401788 x647 + 380921 x648
       + 420319 x649 + 423300 x650 + 367271 x651 + 377965 x652 + 416662 x653
       + 373913 x654 + 437118 x655 + 376548 x656 + 418798 x657 + 397597 x658
       + 385873 x659 + 634695 x660
Subject To
 c1:   x1 - x3 + x4 - x10 - x18 - x26 + x33 - x36 + x45 - x48 + x54 + x60  = 0
 c2:   x61 - x63 + x64 - x70 - x78 - x86 + x93 - x96 + x105 - x108 + x114
       + x120  = 0
 c3:   x121 - x123 + x124 - x130 - x138 - x146 + x153 - x156 + x165 - x168
       + x174 + x180  = 1
 c4:   x181 - x183 + x184 - x190 - x198 - x206 + x213 - x216 + x225 - x228
       + x234 + x240  = -1
 c5:   x241 - x243 + x244 - x250 - x258 - x266 + x273 - x276 + x285 - x288
       + x294 + x300  = -1
 c6:   x301 - x303 + x304 - x310 - x318 - x326 + x333 - x336 + x345 - x348
       + x354 + x360  = 0
 c7:   x361 - x363 + x364 - x370 - x378 - x386 + x393 - x396 + x405 - x408
       + x414 + x420  = -1
 c8:   x421 - x423 + x424 - x430 - x438 - x446 + x453 - x456 + x465 - x468
       + x474 + x480  = -1
 c9:   x481 - x483 + x484 - x490 - x498 - x506 + x513 - x516 + x525 - x528
       + x534 + x540  = 0
 c10:  x541 - x543 + x544 - x550 - x558 - x566 + x573 - x576 + x585 - x588
       + x594 + x600  = 1
 c11:  - x2 - x4 + x10 - x15 + x17 - x19 + x22 + x24 + x44 + x47 + x49 - x55
       - x57 + x58  = 0
 c12:  - x62 - x64 + x70 - x75 + x77 - x79 + x82 + x84 + x104 + x107 + x109
       - x115 - x117 + x118  = 0
 c13:  - x122 - x124 + x130 - x135 + x137 - x139 + x142 + x144 + x164 + x167
       + x169 - x175 - x177 + x178  = 0
 c14:  - x182 - x184 + x190 - x195 + x197 - x199 + x202 + x204 + x224 + x227
       + x229 - x235 - x237 + x238  = 0
 c15:  - x242 - x244 + x250 - x255 + x257 - x259 + x262 + x264 + x284 + x287
       + x289 - x295 - x297 + x298  = 0
 c16:  - x302 - x304 + x310 - x315 + x317 - x319 + x322 + x324 + x344 + x347
       + x349 - x355 - x357 + x358  = -1
 c17:  - x362 - x364 + x370 - x375 + x377 - x379 + x382 + x384 + x404 + x407
       + x409 - x415 - x417 + x418  = 0
 c18:  - x422 - x424 + x430 - x435 + x437 - x439 + x442 + x444 + x464 + x467
       + x469 - x475 - x477 + x478  = 0
 c19:  - x482 - x484 + x490 - x495 + x497 - x499 + x502 + x504 + x524 + x527
       + x529 - x535 - x537 + x538  = 1
 c20:  - x542 - x544 + x550 - x555 + x557 - x559 + x562 + x564 + x584 + x587
       + x589 - x595 - x597 + x598  = 0
 c21:  x6 - x17 + x23 - x25 + x37 + x41 + x48 + x56 - x59  = 0
 c22:  x66 - x77 + x83 - x85 + x97 + x101 + x108 + x116 - x119  = -1
 c23:  x126 - x137 + x143 - x145 + x157 + x161 + x168 + x176 - x179  = 0
 c24:  x186 - x197 + x203 - x205 + x217 + x221 + x228 + x236 - x239  = 1
 c25:  x246 - x257 + x263 - x265 + x277 + x281 + x288 + x296 - x299  = 0
 c26:  x306 - x317 + x323 - x325 + x337 + x341 + x348 + x356 - x359  = 0
 c27:  x366 - x377 + x383 - x385 + x397 + x401 + x408 + x416 - x419  = 0
 c28:  x426 - x437 + x443 - x445 + x457 + x461 + x468 + x476 - x479  = 0
 c29:  x486 - x497 + x503 - x505 + x517 + x521 + x528 + x536 - x539  = 0
 c30:  x546 - x557 + x563 - x565 + x577 + x581 + x588 + x596 - x599  = 0
 c31:  - x11 - x12 + x13 + x19 + x29 - x30 - x31 - x47 + x51 + x52  = 0
 c32:  - x71 - x72 + x73 + x79 + x89 - x90 - x91 - x107 + x111 + x112  = 1
 c33:  - x131 - x132 + x133 + x139 + x149 - x150 - x151 - x167 + x171 + x172
        = 0
 c34:  - x191 - x192 + x193 + x199 + x209 - x210 - x211 - x227 + x231 + x232
        = 0
 c35:  - x251 - x252 + x253 + x259 + x269 - x270 - x271 - x287 + x291 + x292
        = 0
 c36:  - x311 - x312 + x313 + x319 + x329 - x330 - x331 - x347 + x351 + x352
        = 1
 c37:  - x371 - x372 + x373 + x379 + x389 - x390 - x391 - x407 + x411 + x412
        = 0
 c38:  - x431 - x432 + x433 + x439 + x449 - x450 - x451 - x467 + x471 + x472
        = 0
 c39:  - x491 - x492 + x493 + x499 + x509 - x510 - x511 - x527 + x531 + x532
        = 0
 c40:  - x551 - x552 + x553 + x559 + x569 - x570 - x571 - x587 + x591 + x592
        = 0
 c41:  - x13 + x15 + x21 + x26 - x28 + x31 - x32 - x37 + x40 + x43 - x45 - x53
       + x59  = 1
 c42:  - x73 + x75 + x81 + x86 - x88 + x91 - x92 - x97 + x100 + x103 - x105
       - x113 + x119  = 0
 c43:  - x133 + x135 + x141 + x146 - x148 + x151 - x152 - x157 + x160 + x163
       - x165 - x173 + x179  = 0
 c44:  - x193 + x195 + x201 + x206 - x208 + x211 - x212 - x217 + x220 + x223
       - x225 - x233 + x239  = 0
 c45:  - x253 + x255 + x261 + x266 - x268 + x271 - x272 - x277 + x280 + x283
       - x285 - x293 + x299  = 0
 c46:  - x313 + x315 + x321 + x326 - x328 + x331 - x332 - x337 + x340 + x343
       - x345 - x353 + x359  = 0
 c47:  - x373 + x375 + x381 + x386 - x388 + x391 - x392 - x397 + x400 + x403
       - x405 - x413 + x419  = 1
 c48:  - x433 + x435 + x441 + x446 - x448 + x451 - x452 - x457 + x460 + x463
       - x465 - x473 + x479  = 0
 c49:  - x493 + x495 + x501 + x506 - x508 + x511 - x512 - x517 + x520 + x523
       - x525 - x533 + x539  = 0
 c50:  - x553 + x555 + x561 + x566 - x568 + x571 - x572 - x577 + x580 + x583
       - x585 - x593 + x599  = 0
 c51:  - x1 + x8 + x11 - x16 - x23 - x27 - x29 + x34 - x35 + x36 + x38 - x43
       - x50 + x57 - x58  = -1
 c52:  - x61 + x68 + x71 - x76 - x83 - x87 - x89 + x94 - x95 + x96 + x98 - x103
       - x110 + x117 - x118  = 0
 c53:  - x121 + x128 + x131 - x136 - x143 - x147 - x149 + x154 - x155 + x156
       + x158 - x163 - x170 + x177 - x178  = 0
 c54:  - x181 + x188 + x191 - x196 - x203 - x207 - x209 + x214 - x215 + x216
       + x218 - x223 - x230 + x237 - x238  = 0
 c55:  - x241 + x248 + x251 - x256 - x263 - x267 - x269 + x274 - x275 + x276
       + x278 - x283 - x290 + x297 - x298  = 0
 c56:  - x301 + x308 + x311 - x316 - x323 - x327 - x329 + x334 - x335 + x336
       + x338 - x343 - x350 + x357 - x358  = 0
 c57:  - x361 + x368 + x371 - x376 - x383 - x387 - x389 + x394 - x395 + x396
       + x398 - x403 - x410 + x417 - x418  = 0
 c58:  - x421 + x428 + x431 - x436 - x443 - x447 - x449 + x454 - x455 + x456
       + x458 - x463 - x470 + x477 - x478  = 0
 c59:  - x481 + x488 + x491 - x496 - x503 - x507 - x509 + x514 - x515 + x516
       + x518 - x523 - x530 + x537 - x538  = 0
 c60:  - x541 + x548 + x551 - x556 - x563 - x567 - x569 + x574 - x575 + x576
       + x578 - x583 - x590 + x597 - x598  = -1
 c61:  x2 - x8 - x9 + x12 + x28 - x33 - x40 + x42 - x49 + x50  = 0
 c62:  x62 - x68 - x69 + x72 + x88 - x93 - x100 + x102 - x109 + x110  = 0
 c63:  x122 - x128 - x129 + x132 + x148 - x153 - x160 + x162 - x169 + x170  = 0
 c64:  x182 - x188 - x189 + x192 + x208 - x213 - x220 + x222 - x229 + x230  = 0
 c65:  x242 - x248 - x249 + x252 + x268 - x273 - x280 + x282 - x289 + x290  = 1
 c66:  x302 - x308 - x309 + x312 + x328 - x333 - x340 + x342 - x349 + x350  = 0
 c67:  x362 - x368 - x369 + x372 + x388 - x393 - x400 + x402 - x409 + x410  = 0
 c68:  x422 - x428 - x429 + x432 + x448 - x453 - x460 + x462 - x469 + x470  = 1
 c69:  x482 - x488 - x489 + x492 + x508 - x513 - x520 + x522 - x529 + x530  = 0
 c70:  x542 - x548 - x549 + x552 + x568 - x573 - x580 + x582 - x589 + x590  = 0
 c71:  - x7 - x14 + x18 + x20 - x21 - x24 + x27 + x30 + x32 - x38 + x39 - x56
        = 0
 c72:  - x67 - x74 + x78 + x80 - x81 - x84 + x87 + x90 + x92 - x98 + x99 - x116
        = 0
 c73:  - x127 - x134 + x138 + x140 - x141 - x144 + x147 + x150 + x152 - x158
       + x159 - x176  = 0
 c74:  - x187 - x194 + x198 + x200 - x201 - x204 + x207 + x210 + x212 - x218
       + x219 - x236  = 0
 c75:  - x247 - x254 + x258 + x260 - x261 - x264 + x267 + x270 + x272 - x278
       + x279 - x296  = 0
 c76:  - x307 - x314 + x318 + x320 - x321 - x324 + x327 + x330 + x332 - x338
       + x339 - x356  = 0
 c77:  - x367 - x374 + x378 + x380 - x381 - x384 + x387 + x390 + x392 - x398
       + x399 - x416  = 0
 c78:  - x427 - x434 + x438 + x440 - x441 - x444 + x447 + x450 + x452 - x458
       + x459 - x476  = 0
 c79:  - x487 - x494 + x498 + x500 - x501 - x504 + x507 + x510 + x512 - x518
       + x519 - x536  = 0
 c80:  - x547 - x554 + x558 + x560 - x561 - x564 + x567 + x570 + x572 - x578
       + x579 - x596  = 0
 c81:  x3 - x5 - x6 + x7 - x22 + x25 - x34 + x35 - x39 + x46 - x51 + x53 + x55
       - x60  = 0
 c82:  x63 - x65 - x66 + x67 - x82 + x85 - x94 + x95 - x99 + x106 - x111 + x113
       + x115 - x120  = 0
 c83:  x123 - x125 - x126 + x127 - x142 + x145 - x154 + x155 - x159 + x166
       - x171 + x173 + x175 - x180  = -1
 c84:  x183 - x185 - x186 + x187 - x202 + x205 - x214 + x215 - x219 + x226
       - x231 + x233 + x235 - x240  = 0
 c85:  x243 - x245 - x246 + x247 - x262 + x265 - x274 + x275 - x279 + x286
       - x291 + x293 + x295 - x300  = 0
 c86:  x303 - x305 - x306 + x307 - x322 + x325 - x334 + x335 - x339 + x346
       - x351 + x353 + x355 - x360  = 0
 c87:  x363 - x365 - x366 + x367 - x382 + x385 - x394 + x395 - x399 + x406
       - x411 + x413 + x415 - x420  = 0
 c88:  x423 - x425 - x426 + x427 - x442 + x445 - x454 + x455 - x459 + x466
       - x471 + x473 + x475 - x480  = 0
 c89:  x483 - x485 - x486 + x487 - x502 + x505 - x514 + x515 - x519 + x526
       - x531 + x533 + x535 - x540  = 0
 c90:  x543 - x545 - x546 + x547 - x562 + x565 - x574 + x575 - x579 + x586
       - x591 + x593 + x595 - x600  = 0
 c91:  x5 + x9 + x14 + x16 - x20 - x41 - x42 - x44 - x46 - x52 - x54  = 0
 c92:  x65 + x69 + x74 + x76 - x80 - x101 - x102 - x104 - x106 - x112 - x114
        = 0
 c93:  x125 + x129 + x134 + x136 - x140 - x161 - x162 - x164 - x166 - x172
       - x174  = 0
 c94:  x185 + x189 + x194 + x196 - x200 - x221 - x222 - x224 - x226 - x232
       - x234  = 0
 c95:  x245 + x249 + x254 + x256 - x260 - x281 - x282 - x284 - x286 - x292
       - x294  = 0
 c96:  x305 + x309 + x314 + x316 - x320 - x341 - x342 - x344 - x346 - x352
       - x354  = 0
 c97:  x365 + x369 + x374 + x376 - x380 - x401 - x402 - x404 - x406 - x412
       - x414  = 0
 c98:  x425 + x429 + x434 + x436 - x440 - x461 - x462 - x464 - x466 - x472
       - x474  = 0
 c99:  x485 + x489 + x494 + x496 - x500 - x521 - x522 - x524 - x526 - x532
       - x534  = -1
 c100: x545 + x549 + x554 + x556 - x560 - x581 - x582 - x584 - x586 - x592
       - x594  = 0
 c101: 4 x1 + 4 x61 + 4 x121 + 4 x181 + 4 x241 + 4 x301 + 4 x361 + 4 x421
       + 4 x481 + 4 x541 - 5 x601 <= 0
 c102: 4 x2 + 4 x62 + 4 x122 + 4 x182 + 4 x242 + 4 x302 + 4 x362 + 4 x422
       + 4 x482 + 4 x542 - 5 x602 <= 0
 c103: 4 x3 + 4 x63 + 4 x123 + 4 x183 + 4 x243 + 4 x303 + 4 x363 + 4 x423
       + 4 x483 + 4 x543 - 5 x603 <= 0
 c104: 4 x4 + 4 x64 + 4 x124 + 4 x184 + 4 x244 + 4 x304 + 4 x364 + 4 x424
       + 4 x484 + 4 x544 - 5 x604 <= 0
 c105: 4 x5 + 4 x65 + 4 x125 + 4 x185 + 4 x245 + 4 x305 + 4 x365 + 4 x425
       + 4 x485 + 4 x545 - 5 x605 <= 0
 c106: 4 x6 + 4 x66 + 4 x126 + 4 x186 + 4 x246 + 4 x306 + 4 x366 + 4 x426
       + 4 x486 + 4 x546 - 5 x606 <= 0
 c107: 4 x7 + 4 x67 + 4 x127 + 4 x187 + 4 x247 + 4 x307 + 4 x367 + 4 x427
       + 4 x487 + 4 x547 - 5 x607 <= 0
 c108: 4 x8 + 4 x68 + 4 x128 + 4 x188 + 4 x248 + 4 x308 + 4 x368 + 4 x428
       + 4 x488 + 4 x548 - 5 x608 <= 0
 c109: 4 x9 + 4 x69 + 4 x129 + 4 x189 + 4 x249 + 4 x309 + 4 x369 + 4 x429
       + 4 x489 + 4 x549 - 5 x609 <= 0
 c110: 4 x10 + 4 x70 + 4 x130 + 4 x190 + 4 x250 + 4 x310 + 4 x370 + 4 x430
       + 4 x490 + 4 x550 - 5 x610 <= 0
 c111: 4 x11 + 4 x71 + 4 x131 + 4 x191 + 4 x251 + 4 x311 + 4 x371 + 4 x431
       + 4 x491 + 4 x551 - 5 x611 <= 0
 c112: 4 x12 + 4 x72 + 4 x132 + 4 x192 + 4 x252 + 4 x312 + 4 x372 + 4 x432
       + 4 x492 + 4 x552 - 5 x612 <= 0
 c113: 4 x13 + 4 x73 + 4 x133 + 4 x193 + 4 x253 + 4 x313 + 4 x373 + 4 x433
       + 4 x493 + 4 x553 - 5 x613 <= 0
 c114: 4 x14 + 4 x74 + 4 x134 + 4 x194 + 4 x254 + 4 x314 + 4 x374 + 4 x434
       + 4 x494 + 4 x554 - 5 x614 <= 0
 c115: 4 x15 + 4 x75 + 4 x135 + 4 x195 + 4 x255 + 4 x315 + 4 x375 + 4 x435
       + 4 x495 + 4 x555 - 5 x615 <= 0
 c116: 4 x16 + 4 x76 + 4 x136 + 4 x196 + 4 x256 + 4 x316 + 4 x376 + 4 x436
       + 4 x496 + 4 x556 - 5 x616 <= 0
 c117: 4 x17 + 4 x77 + 4 x137 + 4 x197 + 4 x257 + 4 x317 + 4 x377 + 4 x437
       + 4 x497 + 4 x557 - 5 x617 <= 0
 c118: 4 x18 + 4 x78 + 4 x138 + 4 x198 + 4 x258 + 4 x318 + 4 x378 + 4 x438
       + 4 x498 + 4 x558 - 5 x618 <= 0
 c119: 4 x19 + 4 x79 + 4 x139 + 4 x199 + 4 x259 + 4 x319 + 4 x379 + 4 x439
       + 4 x499 + 4 x559 - 5 x619 <= 0
 c120: 4 x20 + 4 x80 + 4 x140 + 4 x200 + 4 x260 + 4 x320 + 4 x380 + 4 x440
       + 4 x500 + 4 x560 - 5 x620 <= 0
 c121: 4 x21 + 4 x81 + 4 x141 + 4 x201 + 4 x261 + 4 x321 + 4 x381 + 4 x441
       + 4 x501 + 4 x561 - 5 x621 <= 0
 c122: 4 x22 + 4 x82 + 4 x142 + 4 x202 + 4 x262 + 4 x322 + 4 x382 + 4 x442
       + 4 x502 + 4 x562 - 5 x622 <= 0
 c123: 4 x23 + 4 x83 + 4 x143 + 4 x203 + 4 x263 + 4 x323 + 4 x383 + 4 x443
       + 4 x503 + 4 x563 - 5 x623 <= 0
 c124: 4 x24 + 4 x84 + 4 x144 + 4 x204 + 4 x264 + 4 x324 + 4 x384 + 4 x444
       + 4 x504 + 4 x564 - 5 x624 <= 0
 c125: 4 x25 + 4 x85 + 4 x145 + 4 x205 + 4 x265 + 4 x325 + 4 x385 + 4 x445
       + 4 x505 + 4 x565 - 5 x625 <= 0
 c126: 4 x26 + 4 x86 + 4 x146 + 4 x206 + 4 x266 + 4 x326 + 4 x386 + 4 x446
       + 4 x506 + 4 x566 - 5 x626 <= 0
 c127: 4 x27 + 4 x87 + 4 x147 + 4 x207 + 4 x267 + 4 x327 + 4 x387 + 4 x447
       + 4 x507 + 4 x567 - 5 x627 <= 0
 c128: 4 x28 + 4 x88 + 4 x148 + 4 x208 + 4 x268 + 4 x328 + 4 x388 + 4 x448
       + 4 x508 + 4 x568 - 5 x628 <= 0
 c129: 4 x29 + 4 x89 + 4 x149 + 4 x209 + 4 x269 + 4 x329 + 4 x389 + 4 x449
       + 4 x509 + 4 x569 - 5 x629 <= 0
 c130: 4 x30 + 4 x90 + 4 x150 + 4 x210 + 4 x270 + 4 x330 + 4 x390 + 4 x450
       + 4 x510 + 4 x570 - 5 x630 <= 0
 c131: 4 x31 + 4 x91 + 4 x151 + 4 x211 + 4 x271 + 4 x331 + 4 x391 + 4 x451
       + 4 x511 + 4 x571 - 5 x631 <= 0
 c132: 4 x32 + 4 x92 + 4 x152 + 4 x212 + 4 x272 + 4 x332 + 4 x392 + 4 x452
       + 4 x512 + 4 x572 - 5 x632 <= 0
 c133: 4 x33 + 4 x93 + 4 x153 + 4 x213 + 4 x273 + 4 x333 + 4 x393 + 4 x453
       + 4 x513 + 4 x573 - 5 x633 <= 0
 c134: 4 x34 + 4 x94 + 4 x154 + 4 x214 + 4 x274 + 4 x334 + 4 x394 + 4 x454
       + 4 x514 + 4 x574 - 5 x634 <= 0
 c135: 4 x35 + 4 x95 + 4 x155 + 4 x215 + 4 x275 + 4 x335 + 4 x395 + 4 x455
       + 4 x515 + 4 x575 - 5 x635 <= 0
 c136: 4 x36 + 4 x96 + 4 x156 + 4 x216 + 4 x276 + 4 x336 + 4 x396 + 4 x456
       + 4 x516 + 4 x576 - 5 x636 <= 0
 c137: 4 x37 + 4 x97 + 4 x157 + 4 x217 + 4 x277 + 4 x337 + 4 x397 + 4 x457
       + 4 x517 + 4 x577 - 5 x637 <= 0
 c138: 4 x38 + 4 x98 + 4 x158 + 4 x218 + 4 x278 + 4 x338 + 4 x398 + 4 x458
       + 4 x518 + 4 x578 - 5 x638 <= 0
 c139: 4 x39 + 4 x99 + 4 x159 + 4 x219 + 4 x279 + 4 x339 + 4 x399 + 4 x459
       + 4 x519 + 4 x579 - 5 x639 <= 0
 c140: 4 x40 + 4 x100 + 4 x160 + 4 x220 + 4 x280 + 4 x340 + 4 x400 + 4 x460
       + 4 x520 + 4 x580 - 5 x640 <= 0
 c141: 4 x41 + 4 x101 + 4 x161 + 4 x221 + 4 x281 + 4 x341 + 4 x401 + 4 x461
       + 4 x521 + 4 x581 - 5 x641 <= 0
 c142: 4 x42 + 4 x102 + 4 x162 + 4 x222 + 4 x282 + 4 x342 + 4 x402 + 4 x462
       + 4 x522 + 4 x582 - 5 x642 <= 0
 c143: 4 x43 + 4 x103 + 4 x163 + 4 x223 + 4 x283 + 4 x343 + 4 x403 + 4 x463
       + 4 x523 + 4 x583 - 5 x643 <= 0
 c144: 4 x44 + 4 x104 + 4 x164 + 4 x224 + 4 x284 + 4 x344 + 4 x404 + 4 x464
       + 4 x524 + 4 x584 - 5 x644 <= 0
 c145: 4 x45 + 4 x105 + 4 x165 + 4 x225 + 4 x285 + 4 x345 + 4 x405 + 4 x465
       + 4 x525 + 4 x585 - 5 x645 <= 0
 c146: 4 x46 + 4 x106 + 4 x166 + 4 x226 + 4 x286 + 4 x346 + 4 x406 + 4 x466
       + 4 x526 + 4 x586 - 5 x646 <= 0
 c147: 4 x47 + 4 x107 + 4 x167 + 4 x227 + 4 x287 + 4 x347 + 4 x407 + 4 x467
       + 4 x527 + 4 x587 - 5 x647 <= 0
 c148: 4 x48 + 4 x108 + 4 x168 + 4 x228 + 4 x288 + 4 x348 + 4 x408 + 4 x468
       + 4 x528 + 4 x588 - 5 x648 <= 0
 c149: 4 x49 + 4 x109 + 4 x169 + 4 x229 + 4 x289 + 4 x349 + 4 x409 + 4 x469
       + 4 x529 + 4 x589 - 5 x649 <= 0
 c150: 4 x50 + 4 x110 + 4 x170 + 4 x230 + 4 x290 + 4 x350 + 4 x410 + 4 x470
       + 4 x530 + 4 x590 - 5 x650 <= 0
 c151: 4 x51 + 4 x111 + 4 x171 + 4 x231 + 4 x291 + 4 x351 + 4 x411 + 4 x471
       + 4 x531 + 4 x591 - 5 x651 <= 0
 c152: 4 x52 + 4 x112 + 4 x172 + 4 x232 + 4 x292 + 4 x352 + 4 x412 + 4 x472
       + 4 x532 + 4 x592 - 5 x652 <= 0
 c153: 4 x53 + 4 x113 + 4 x173 + 4 x233 + 4 x293 + 4 x353 + 4 x413 + 4 x473
       + 4 x533 + 4 x593 - 5 x653 <= 0
 c154: 4 x54 + 4 x114 + 4 x174 + 4 x234 + 4 x294 + 4 x354 + 4 x414 + 4 x474
       + 4 x534 + 4 x594 - 5 x654 <= 0
 c155: 4 x55 + 4 x115 + 4 x175 + 4 x235 + 4 x295 + 4 x355 + 4 x415 + 4 x475
       + 4 x535 + 4 x595 - 5 x655 <= 0
 c156: 4 x56 + 4 x116 + 4 x176 + 4 x236 + 4 x296 + 4 x356 + 4 x416 + 4 x476
       + 4 x536 + 4 x596 - 5 x656 <= 0
 c157: 4 x57 + 4 x117 + 4 x177 + 4 x237 + 4 x297 + 4 x357 + 4 x417 + 4 x477
       + 4 x537 + 4 x597 - 5 x657 <= 0
 c158: 4 x58 + 4 x118 + 4 x178 + 4 x238 + 4 x298 + 4 x358 + 4 x418 + 4 x478
       + 4 x538 + 4 x598 - 5 x658 <= 0
 c159: 4 x59 + 4 x119 + 4 x179 + 4 x239 + 4 x299 + 4 x359 + 4 x419 + 4 x479
       + 4 x539 + 4 x599 - 5 x659 <= 0
 c160: 4 x60 + 4 x120 + 4 x180 + 4 x240 + 4 x300 + 4 x360 + 4 x420 + 4 x480
       + 4 x540 + 4 x600 - 5 x660 <= 0
Bounds
 0 <= x1 <= 1
 0 <= x2 <= 1
 0 <= x3 <= 1
 0 <= x4 <= 1
 0 <= x5 <= 1
 0 <= x6 <= 1
 0 <= x7 <= 1
 0 <= x8 <= 1
 0 <= x9 <= 1
 0 <= x10 <= 1
 0 <= x11 <= 1
 0 <= x12 <= 1
 0 <= x13 <= 1
 0 <= x14 <= 1
 0 <= x15 <= 1
 0 <= x16 <= 1
 0 <= x17 <= 1
 0 <= x18 <= 1
 0 <= x19 <= 1
 0 <= x20 <= 1
 0 <= x21 <= 1
 0 <= x22 <= 1
 0 <= x23 <= 1
 0 <= x24 <= 1
 0 <= x25 <= 1
 0 <= x26 <= 1
 0 <= x27 <= 1
 0 <= x28 <= 1
 0 <= x29 <= 1
 0 <= x30 <= 1
 0 <= x31 <= 1
 0 <= x32 <= 1
 0 <= x33 <= 1
 0 <= x34 <= 1
 0 <= x35 <= 1
 0 <= x36 <= 1
 0 <= x37 <= 1
 0 <= x38 <= 1
 0 <= x39 <= 1
 0 <= x40 <= 1
 0 <= x41 <= 1
 0 <= x42 <= 1
 0 <= x43 <= 1
 0 <= x44 <= 1
 0 <= x45 <= 1
 0 <= x46 <= 1
 0 <= x47 <= 1
 0 <= x48 <= 1
 0 <= x49 <= 1
 0 <= x50 <= 1
 0 <= x51 <= 1
 0 <= x52 <= 1
 0 <= x53 <= 1
 0 <= x54 <= 1
 0 <= x55 <= 1
 0 <= x56 <= 1
 0 <= x57 <= 1
 0 <= x58 <= 1
 0 <= x59 <= 1
 0 <= x60 <= 1
 0 <= x61 <= 1
 0 <= x62 <= 1
 0 <= x63 <= 1
 0 <= x64 <= 1
 0 <= x65 <= 1
 0 <= x66 <= 1
 0 <= x67 <= 1
 0 <= x68 <= 1
 0 <= x69 <= 1
 0 <= x70 <= 1
 0 <= x71 <= 1
 0 <= x72 <= 1
 0 <= x73 <= 1
 0 <= x74 <= 1
 0 <= x75 <= 1
 0 <= x76 <= 1
 0 <= x77 <= 1
 0 <= x78 <= 1
 0 <= x79 <= 1
 0 <= x80 <= 1
 0 <= x81 <= 1
 0 <= x82 <= 1
 0 <= x83 <= 1
 0 <= x84 <= 1
 0 <= x85 <= 1
 0 <= x86 <= 1
 0 <= x87 <= 1
 0 <= x88 <= 1
 0 <= x89 <= 1
 0 <= x90 <= 1
 0 <= x91 <= 1
 0 <= x92 <= 1
 0 <= x93 <= 1
 0 <= x94 <= 1
 0 <= x95 <= 1
 0 <= x96 <= 1
 0 <= x97 <= 1
 0 <= x98 <= 1
 0 <= x99 <= 1
 0 <= x100 <= 1
 0 <= x101 <= 1
 0 <= x102 <= 1
 0 <= x103 <= 1
 0 <= x104 <= 1
 0 <= x105 <= 1
 0 <= x106 <= 1
 0 <= x107 <= 1
 0 <= x108 <= 1
 0 <= x109 <= 1
 0 <= x110 <= 1
 0 <= x111 <= 1
 0 <= x112 <= 1
 0 <= x113 <= 1
 0 <= x114 <= 1
 0 <= x115 <= 1
 0 <= x116 <= 1
 0 <= x117 <= 1
 0 <= x118 <= 1
 0 <= x119 <= 1
 0 <= x120 <= 1
 0 <= x121 <= 1
 0 <= x122 <= 1
 0 <= x123 <= 1
 0 <= x124 <= 1
 0 <= x125 <= 1
 0 <= x126 <= 1
 0 <= x127 <= 1
 0 <= x128 <= 1
 0 <= x129 <= 1
 0 <= x130 <= 1
 0 <= x131 <= 1
 0 <= x132 <= 1
 0 <= x133 <= 1
 0 <= x134 <= 1
 0 <= x135 <= 1
 0 <= x136 <= 1
 0 <= x137 <= 1
 0 <= x138 <= 1
 0 <= x139 <= 1
 0 <= x140 <= 1
 0 <= x141 <= 1
 0 <= x142 <= 1
 0 <= x143 <= 1
 0 <= x144 <= 1
 0 <= x145 <= 1
 0 <= x146 <= 1
 0 <= x147 <= 1
 0 <= x148 <= 1
 0 <= x149 <= 1
 0 <= x150 <= 1
 0 <= x151 <= 1
 0 <= x152 <= 1
 0 <= x153 <= 1
 0 <= x154 <= 1
 0 <= x155 <= 1
 0 <= x156 <= 1
 0 <= x157 <= 1
 0 <= x158 <= 1
 0 <= x159 <= 1
 0 <= x160 <= 1
 0 <= x161 <= 1
 0 <= x162 <= 1
 0 <= x163 <= 1
 0 <= x164 <= 1
 0 <= x165 <= 1
 0 <= x166 <= 1
 0 <= x167 <= 1
 0 <= x168 <= 1
 0 <= x169 <= 1
 0 <= x170 <= 1
 0 <= x171 <= 1
 0 <= x172 <= 1
 0 <= x173 <= 1
 0 <= x174 <= 1
 0 <= x175 <= 1
 0 <= x176 <= 1
 0 <= x177 <= 1
 0 <= x178 <= 1
 0 <= x179 <= 1
 0 <= x180 <= 1
 0 <= x181 <= 1
 0 <= x182 <= 1
 0 <= x183 <= 1
 0 <= x184 <= 1
 0 <= x185 <= 1
 0 <= x186 <= 1
 0 <= x187 <= 1
 0 <= x188 <= 1
 0 <= x189 <= 1
 0 <= x190 <= 1
 0 <= x191 <= 1
 0 <= x192 <= 1
 0 <= x193 <= 1
 0 <= x194 <= 1
 0 <= x195 <= 1
 0 <= x196 <= 1
 0 <= x197 <= 1
 0 <= x198 <= 1
 0 <= x199 <= 1
 0 <= x200 <= 1
 0 <= x201 <= 1
 0 <= x202 <= 1
 0 <= x203 <= 1
 0 <= x204 <= 1
 0 <= x205 <= 1
 0 <= x206 <= 1
 0 <= x207 <= 1
 0 <= x208 <= 1
 0 <= x209 <= 1
 0 <= x210 <= 1
 0 <= x211 <= 1
 0 <= x212 <= 1
 0 <= x213 <= 1
 0 <= x214 <= 1
 0 <= x215 <= 1
 0 <= x216 <= 1
 0 <= x217 <= 1
 0 <= x218 <= 1
 0 <= x219 <= 1
 0 <= x220 <= 1
 0 <= x221 <= 1
 0 <= x222 <= 1
 0 <= x223 <= 1
 0 <= x224 <= 1
 0 <= x225 <= 1
 0 <= x226 <= 1
 0 <= x227 <= 1
 0 <= x228 <= 1
 0 <= x229 <= 1
 0 <= x230 <= 1
 0 <= x231 <= 1
 0 <= x232 <= 1
 0 <= x233 <= 1
 0 <= x234 <= 1
 0 <= x235 <= 1
 0 <= x236 <= 1
 0 <= x237 <= 1
 0 <= x238 <= 1
 0 <= x239 <= 1
 0 <= x240 <= 1
 0 <= x241 <= 1
 0 <= x242 <= 1
 0 <= x243 <= 1
 0 <= x244 <= 1
 0 <= x245 <= 1
 0 <= x246 <= 1
 0 <= x247 <= 1
 0 <= x248 <= 1
 0 <= x249 <= 1
 0 <= x250 <= 1
 0 <= x251 <= 1
 0 <= x252 <= 1
 0 <= x253 <= 1
 0 <= x254 <= 1
 0 <= x255 <= 1
 0 <= x256 <= 1
 0 <= x257 <= 1
 0 <= x258 <= 1
 0 <= x259 <= 1
 0 <= x260 <= 1
 0 <= x261 <= 1
 0 <= x262 <= 1
 0 <= x263 <= 1
 0 <= x264 <= 1
 0 <= x265 <= 1
 0 <= x266 <= 1
 0 <= x267 <= 1
 0 <= x268 <= 1
 0 <= x269 <= 1
 0 <= x270 <= 1
 0 <= x271 <= 1
 0 <= x272 <= 1
 0 <= x273 <= 1
 0 <= x274 <= 1
 0 <= x275 <= 1
 0 <= x276 <= 1
 0 <= x277 <= 1
 0 <= x278 <= 1
 0 <= x279 <= 1
 0 <= x280 <= 1
 0 <= x281 <= 1
 0 <= x282 <= 1
 0 <= x283 <= 1
 0 <= x284 <= 1
 0 <= x285 <= 1
 0 <= x286 <= 1
 0 <= x287 <= 1
 0 <= x288 <= 1
 0 <= x289 <= 1
 0 <= x290 <= 1
 0 <= x291 <= 1
 0 <= x292 <= 1
 0 <= x293 <= 1
 0 <= x294 <= 1
 0 <= x295 <= 1
 0 <= x296 <= 1
 0 <= x297 <= 1
 0 <= x298 <= 1
 0 <= x299 <= 1
 0 <= x300 <= 1
 0 <= x301 <= 1
 0 <= x302 <= 1
 0 <= x303 <= 1
 0 <= x304 <= 1
 0 <= x305 <= 1
 0 <= x306 <= 1
 0 <= x307 <= 1
 0 <= x308 <= 1
 0 <= x309 <= 1
 0 <= x310 <= 1
 0 <= x311 <= 1
 0 <= x312 <= 1
 0 <= x313 <= 1
 0 <= x314 <= 1
 0 <= x315 <= 1
 0 <= x316 <= 1
 0 <= x317 <= 1
 0 <= x318 <= 1
 0 <= x319 <= 1
 0 <= x320 <= 1
 0 <= x321 <= 1
 0 <= x322 <= 1
 0 <= x323 <= 1
 0 <= x324 <= 1
 0 <= x325 <= 1
 0 <= x326 <= 1
 0 <= x327 <= 1
 0 <= x328 <= 1
 0 <= x329 <= 1
 0 <= x330 <= 1
 0 <= x331 <= 1
 0 <= x332 <= 1
 0 <= x333 <= 1
 0 <= x334 <= 1
 0 <= x335 <= 1
 0 <= x336 <= 1
 0 <= x337 <= 1
 0 <= x338 <= 1
 0 <= x339 <= 1
 0 <= x340 <= 1
 0 <= x341 <= 1
 0 <= x342 <= 1
 0 <= x343 <= 1
 0 <= x344 <= 1
 0 <= x345 <= 1
 0 <= x346 <= 1
 0 <= x347 <= 1
 0 <= x348 <= 1
 0 <= x349 <= 1
 0 <= x350 <= 1
 0 <= x351 <= 1
 0 <= x352 <= 1
 0 <= x353 <= 1
 0 <= x354 <= 1
 0 <= x355 <= 1
 0 <= x356 <= 1
 0 <= x357 <= 1
 0 <= x358 <= 1
 0 <= x359 <= 1
 0 <= x360 <= 1
 0 <= x361 <= 1
 0 <= x362 <= 1
 0 <= x363 <= 1
 0 <= x364 <= 1
 0 <= x365 <= 1
 0 <= x366 <= 1
 0 <= x367 <= 1
 0 <= x368 <= 1
 0 <= x369 <= 1
 0 <= x370 <= 1
 0 <= x371 <= 1
 0 <= x372 <= 1
 0 <= x373 <= 1
 0 <= x374 <= 1
 0 <= x375 <= 1
 0 <= x376 <= 1
 0 <= x377 <= 1
 0 <= x378 <= 1
 0 <= x379 <= 1
 0 <= x380 <= 1
 0 <= x381 <= 1
 0 <= x382 <= 1
 0 <= x383 <= 1
 0 <= x384 <= 1
 0 <= x385 <= 1
 0 <= x386 <= 1
 0 <= x387 <= 1
 0 <= x388 <= 1
 0 <= x389 <= 1
 0 <= x390 <= 1
 0 <= x391 <= 1
 0 <= x392 <= 1
 0 <= x393 <= 1
 0 <= x394 <= 1
 0 <= x395 <= 1
 0 <= x396 <= 1
 0 <= x397 <= 1
 0 <= x398 <= 1
 0 <= x399 <= 1
 0 <= x400 <= 1
 0 <= x401 <= 1
 0 <= x402 <= 1
 0 <= x403 <= 1
 0 <= x404 <= 1
 0 <= x405 <= 1
 0 <= x406 <= 1
 0 <= x407 <= 1
 0 <= x408 <= 1
 0 <= x409 <= 1
 0 <= x410 <= 1
 0 <= x411 <= 1
 0 <= x412 <= 1
 0 <= x413 <= 1
 0 <= x414 <= 1
 0 <= x415 <= 1
 0 <= x416 <= 1
 0 <= x417 <= 1
 0 <= x418 <= 1
 0 <= x419 <= 1
 0 <= x420 <= 1
 0 <= x421 <= 1
 0 <= x422 <= 1
 0 <= x423 <= 1
 0 <= x424 <= 1
 0 <= x425 <= 1
 0 <= x426 <= 1
 0 <= x427 <= 1
 0 <= x428 <= 1
 0 <= x429 <= 1
 0 <= x430 <= 1
 0 <= x431 <= 1
 0 <= x432 <= 1
 0 <= x433 <= 1
 0 <= x434 <= 1
 0 <= x435 <= 1
 0 <= x436 <= 1
 0 <= x437 <= 1
 0 <= x438 <= 1
 0 <= x439 <= 1
 0 <= x440 <= 1
 0 <= x441 <= 1
 0 <= x442 <= 1
 0 <= x443 <= 1
 0 <= x444 <= 1
 0 <= x445 <= 1
 0 <= x446 <= 1
 0 <= x447 <= 1
 0 <= x448 <= 1
 0 <= x449 <= 1
 0 <= x450 <= 1
 0 <= x451 <= 1
 0 <= x452 <= 1
 0 <= x453 <= 1
 0 <= x454 <= 1
 0 <= x455 <= 1
 0 <= x456 <= 1
 0 <= x457 <= 1
 0 <= x458 <= 1
 0 <= x459 <= 1
 0 <= x460 <= 1
 0 <= x461 <= 1
 0 <= x462 <= 1
 0 <= x463 <= 1
 0 <= x464 <= 1
 0 <= x465 <= 1
 0 <= x466 <= 1
 0 <= x467 <= 1
 0 <= x468 <= 1
 0 <= x469 <= 1
 0 <= x470 <= 1
 0 <= x471 <= 1
 0 <= x472 <= 1
 0 <= x473 <= 1
 0 <= x474 <= 1
 0 <= x475 <= 1
 0 <= x476 <= 1
 0 <= x477 <= 1
 0 <= x478 <= 1
 0 <= x479 <= 1
 0 <= x480 <= 1
 0 <= x481 <= 1
 0 <= x482 <= 1
 0 <= x483 <= 1
 0 <= x484 <= 1
 0 <= x485 <= 1
 0 <= x486 <= 1
 0 <= x487 <= 1
 0 <= x488 <= 1
 0 <= x489 <= 1
 0 <= x490 <= 1
 0 <= x491 <= 1
 0 <= x492 <= 1
 0 <= x493 <= 1
 0 <= x494 <= 1
 0 <= x495 <= 1
 0 <= x496 <= 1
 0 <= x497 <= 1
 0 <= x498 <= 1
 0 <= x499 <= 1
 0 <= x500 <= 1
 0 <= x501 <= 1
 0 <= x502 <= 1
 0 <= x503 <= 1
 0 <= x504 <= 1
 0 <= x505 <= 1
 0 <= x506 <= 1
 0 <= x507 <= 1
 0 <= x508 <= 1
 0 <= x509 <= 1
 0 <= x510 <= 1
 0 <= x511 <= 1
 0 <= x512 <= 1
 0 <= x513 <= 1
 0 <= x514 <= 1
 0 <= x515 <= 1
 0 <= x516 <= 1
 0 <= x517 <= 1
 0 <= x518 <= 1
 0 <= x519 <= 1
 0 <= x520 <= 1
 0 <= x521 <= 1
 0 <= x522 <= 1
 0 <= x523 <= 1
 0 <= x524 <= 1
 0 <= x525 <= 1
 0 <= x526 <= 1
 0 <= x527 <= 1
 0 <= x528 <= 1
 0 <= x529 <= 1
 0 <= x530 <= 1
 0 <= x531 <= 1
 0 <= x532 <= 1
 0 <= x533 <= 1
 0 <= x534 <= 1
 0 <= x535 <= 1
 0 <= x536 <= 1
 0 <= x537 <= 1
 0 <= x538 <= 1
 0 <= x539 <= 1
 0 <= x540 <= 1
 0 <= x541 <= 1
 0 <= x542 <= 1
 0 <= x543 <= 1
 0 <= x544 <= 1
 0 <= x545 <= 1
 0 <= x546 <= 1
 0 <= x547 <= 1
 0 <= x548 <= 1
 0 <= x549 <= 1
 0 <= x550 <= 1
 0 <= x551 <= 1
 0 <= x552 <= 1
 0 <= x553 <= 1
 0 <= x554 <= 1
 0 <= x555 <= 1
 0 <= x556 <= 1
 0 <= x557 <= 1
 0 <= x558 <= 1
 0 <= x559 <= 1
 0 <= x560 <= 1
 0 <= x561 <= 1
 0 <= x562 <= 1
 0 <= x563 <= 1
 0 <= x564 <= 1
 0 <= x565 <= 1
 0 <= x566 <= 1
 0 <= x567 <= 1
 0 <= x568 <= 1
 0 <= x569 <= 1
 0 <= x570 <= 1
 0 <= x571 <= 1
 0 <= x572 <= 1
 0 <= x573 <= 1
 0 <= x574 <= 1
 0 <= x575 <= 1
 0 <= x576 <= 1
 0 <= x577 <= 1
 0 <= x578 <= 1
 0 <= x579 <= 1
 0 <= x580 <= 1
 0 <= x581 <= 1
 0 <= x582 <= 1
 0 <= x583 <= 1
 0 <= x584 <= 1
 0 <= x585 <= 1
 0 <= x586 <= 1
 0 <= x587 <= 1
 0 <= x588 <= 1
 0 <= x589 <= 1
 0 <= x590 <= 1
 0 <= x591 <= 1
 0 <= x592 <= 1
 0 <= x593 <= 1
 0 <= x594 <= 1
 0 <= x595 <= 1
 0 <= x596 <= 1
 0 <= x597 <= 1
 0 <= x598 <= 1
 0 <= x599 <= 1
 0 <= x600 <= 1
 0 <= x601 <= 1
 0 <= x602 <= 1
 0 <= x603 <= 1
 0 <= x604 <= 1
 0 <= x605 <= 1
 0 <= x606 <= 1
 0 <= x607 <= 1
 0 <= x608 <= 1
 0 <= x609 <= 1
 0 <= x610 <= 1
 0 <= x611 <= 1
 0 <= x612 <= 1
 0 <= x613 <= 1
 0 <= x614 <= 1
 0 <= x615 <= 1
 0 <= x616 <= 1
 0 <= x617 <= 1
 0 <= x618 <= 1
 0 <= x619 <= 1
 0 <= x620 <= 1
 0 <= x621 <= 1
 0 <= x622 <= 1
 0 <= x623 <= 1
 0 <= x624 <= 1
 0 <= x625 <= 1
 0 <= x626 <= 1
 0 <= x627 <= 1
 0 <= x628 <= 1
 0 <= x629 <= 1
 0 <= x630 <= 1
 0 <= x631 <= 1
 0 <= x632 <= 1
 0 <= x633 <= 1
 0 <= x634 <= 1
 0 <= x635 <= 1
 0 <= x636 <= 1
 0 <= x637 <= 1
 0 <= x638 <= 1
 0 <= x639 <= 1
 0 <= x640 <= 1
 0 <= x641 <= 1
 0 <= x642 <= 1
 0 <= x643 <= 1
 0 <= x644 <= 1
 0 <= x645 <= 1
 0 <= x646 <= 1
 0 <= x647 <= 1
 0 <= x648 <= 1
 0 <= x649 <= 1
 0 <= x650 <= 1
 0 <= x651 <= 1
 0 <= x652 <= 1
 0 <= x653 <= 1
 0 <= x654 <= 1
 0 <= x655 <= 1
 0 <= x656 <= 1
 0 <= x657 <= 1
 0 <= x658 <= 1
 0 <= x659 <= 1
 0 <= x660 <= 1
Binaries
 x601  x602  x603  x604  x605  x606  x607  x608  x609  x610  x611  x612  x613 
 x614  x615  x616  x617  x618  x619  x620  x621  x622  x623  x624  x625  x626 
 x627  x628  x629  x630  x631  x632  x633  x634  x635  x636  x637  x638  x639 
 x640  x641  x642  x643  x644  x645  x646  x647  x648  x649  x650  x651  x652 
 x653  x654  x655  x656  x657  x658  x659  x660 
End
